data/lp_files/q3/29_7.lp
\ Model foo
\ LP format - for model browsing. Use MPS format to capture full model detail.
Minimize
  z
Subject To
 allocateEach[1]: x[1,1] + x[2,1] = 1
 allocateEach[2]: x[1,2] + x[2,2] = 1
 allocateEach[3]: x[1,3] + x[2,3] = 1
 allocateEach[4]: x[1,4] + x[2,4] = 1
 allocateEach[5]: x[1,5] + x[2,5] = 1
 allocateEach[6]: x[1,6] + x[2,6] = 1
 allocateEach[7]: x[1,7] + x[2,7] = 1
 allocateEach[8]: x[1,8] + x[2,8] = 1
 allocateEach[9]: x[1,9] + x[2,9] = 1
 allocateAllCash: cashProportion[1] + cashProportion[2] = 1
 findWorstP[1,2]: z + 0.1715756362596511 cashProportion[1]
   - 0.1715756362596511 cashProportion[2] + 0.1959965684872748 x[1,1]
   + 0.2118673148412925 x[1,2] + 0.00717758078352874 x[1,3]
   + 0.0839004861309694 x[1,4] + 0.011323991993137 x[1,5]
   + 0.0858164140692022 x[1,6] + 0.0872748069774092 x[1,7]
   + 0.0707749499571061 x[1,8] + 0.0742922505004289 x[1,9]
   - 0.1959965684872748 x[2,1] - 0.2118673148412925 x[2,2]
   - 0.00717758078352874 x[2,3] - 0.0839004861309694 x[2,4]
   - 0.011323991993137 x[2,5] - 0.0858164140692022 x[2,6]
   - 0.0872748069774092 x[2,7] - 0.0707749499571061 x[2,8]
   - 0.0742922505004289 x[2,9] >= 0
 findWorstP[2,1]: z - 0.1229659384350535 cashProportion[1]
   + 0.1229659384350535 cashProportion[2] - 0.1928310857892364 x[1,1]
   - 0.1062015821617412 x[1,2] - 0.1469442964298889 x[1,3]
   - 0.0963643070869369 x[1,4] - 0.1763331557158667 x[1,5]
   - 0.0425872033446735 x[1,6] - 0.0752346599991802 x[1,7]
   - 0.0199614706726237 x[1,8] - 0.020576300364799 x[1,9]
   + 0.1928310857892364 x[2,1] + 0.1062015821617412 x[2,2]
   + 0.1469442964298889 x[2,3] + 0.0963643070869369 x[2,4]
   + 0.1763331557158667 x[2,5] + 0.0425872033446735 x[2,6]
   + 0.0752346599991802 x[2,7] + 0.0199614706726237 x[2,8]
   + 0.020576300364799 x[2,9] >= 0
Bounds
 z <= 1
 -infinity <= cashProportion[1] <= 1
 -infinity <= cashProportion[2] <= 1
Binaries
 x[1,1] x[1,2] x[1,3] x[1,4] x[1,5] x[1,6] x[1,7] x[1,8] x[1,9] x[2,1]
 x[2,2] x[2,3] x[2,4] x[2,5] x[2,6] x[2,7] x[2,8] x[2,9]
End
